WARNING: for repeatability, setting FPU to use double precision
============================[ Problem Statistics ]=============================
|                                                                             |
|  Number of variables:           100                                         |
|  Number of clauses:             449                                         |
|  Parse time:                   0.00 s                                       |
|  Eliminated clauses:           0.00 Mb                                      |
|  Simplification time:          0.00 s                                       |
|                                                                             |
============================[ Search Statistics ]==============================
| Conflicts |          ORIGINAL         |          LEARNT          | Progress |
|           |    Vars  Clauses Literals |    Limit  Clauses Lit/Cl |          |
===============================================================================
|       100 |      96      445     1370 |      163      100      7 |  0.010 % |
|       250 |      95      438     1349 |      179       97      7 |  1.010 % |
===============================================================================
restarts              : 3
conflicts             : 251            (74238 /sec)
decisions             : 328            (0.00 % random) (97013 /sec)
propagations          : 5628           (1664596 /sec)
conflict literals     : 1555           (19.51 % deleted)
Memory used           : 13.00 MB
CPU time              : 0.003381 s

SATISFIABLE
